20971.1 0
9 53 42 98 67 78 95 73 81 56 31 27 58 75 10 86 65 0 12 93 15 97 33 60 1 36 45 46 30 94 82 49 23 6 85 59 41 68 48 63 18 52 22 8 90 38 79 17 51 84 72 70 19 25 40 43 44 99 11 32 21 35 54 92 5 20 87 88 77 37 47 7 83 39 74 66 57 71 24 3 55 29 26 14 80 96 16 4 91 69 13 28 62 64 76 34 50 2 89 61 
